decision_x1=[0,4];
decision_x2=[0,4];
decision_x3=[0,4];
decision_x4=[0,4];
decision_x5=[0,4];
decision_x6=[0,4];
decision_x7=[0,4];
decision_x8=[0,4];
decision_x9=[0,4];
decision_x10=[0,4];
random_y1=[0,4];
random_y2=[0,4];
random_y3=[0,4];
random_y4=[0,4];
random_y5=[0,4];
random_y6=[0,4];
random_y7=[0,4];
random_y8=[0,4];
random_y9=[0,4];
random_y10=[0,4];
constraint_x3_x1=[
0,0,46|
0,1,34|
0,2,83|
0,3,64|
0,4,46|
1,0,85|
1,1,59|
1,2,54|
1,3,2.1|
1,4,86|
2,0,75|
2,1,33|
2,2,47|
2,3,30|
2,4,98|
3,0,36|
3,1,73|
3,2,82|
3,3,25|
3,4,5|
4,0,1.1|
4,1,29|
4,2,20|
4,3,48|
4,4,39|
];
constraint_x3_x2=[
0,0,61|
0,1,14|
0,2,12|
0,3,43|
0,4,97|
1,0,33|
1,1,34|
1,2,48|
1,3,99|
1,4,69|
2,0,1.3|
2,1,95|
2,2,20|
2,3,13|
2,4,46|
3,0,58|
3,1,90|
3,2,78|
3,3,42|
3,4,55|
4,0,49|
4,1,96|
4,2,15|
4,3,51|
4,4,88|
];
constraint_x4_x2=[
0,0,41|
0,1,41|
0,2,51|
0,3,15|
0,4,68|
1,0,82|
1,1,42|
1,2,21|
1,3,82|
1,4,40|
2,0,65|
2,1,56|
2,2,31|
2,3,59|
2,4,93|
3,0,99|
3,1,76|
3,2,68|
3,3,71|
3,4,10|
4,0,70|
4,1,24|
4,2,69|
4,3,15|
4,4,88|
];
constraint_x4_x3=[
0,0,40|
0,1,18|
0,2,88|
0,3,20|
0,4,72|
1,0,70|
1,1,91|
1,2,20|
1,3,6.6|
1,4,60|
2,0,93|
2,1,9.2|
2,2,25|
2,3,47|
2,4,34|
3,0,59|
3,1,32|
3,2,53|
3,3,36|
3,4,0.91|
4,0,44|
4,1,5.9|
4,2,81|
4,3,67|
4,4,60|
];
constraint_x5_x4=[
0,0,42|
0,1,89|
0,2,28|
0,3,80|
0,4,45|
1,0,44|
1,1,35|
1,2,51|
1,3,89|
1,4,85|
2,0,3.8|
2,1,82|
2,2,82|
2,3,59|
2,4,52|
3,0,58|
3,1,31|
3,2,26|
3,3,36|
3,4,19|
4,0,90|
4,1,12|
4,2,9.9|
4,3,28|
4,4,4.4|
];
constraint_x6_x5=[
0,0,74|
0,1,70|
0,2,78|
0,3,64|
0,4,82|
1,0,42|
1,1,79|
1,2,69|
1,3,69|
1,4,9.2|
2,0,17|
2,1,34|
2,2,60|
2,3,49|
2,4,51|
3,0,1.6|
3,1,44|
3,2,14|
3,3,2.3|
3,4,95|
4,0,17|
4,1,21|
4,2,81|
4,3,57|
4,4,84|
];
constraint_x7_x1=[
0,0,91|
0,1,64|
0,2,73|
0,3,91|
0,4,1e+02|
1,0,32|
1,1,12|
1,2,11|
1,3,92|
1,4,30|
2,0,64|
2,1,36|
2,2,13|
2,3,75|
2,4,64|
3,0,90|
3,1,31|
3,2,66|
3,3,21|
3,4,70|
4,0,6.1|
4,1,9.9|
4,2,39|
4,3,76|
4,4,7.6|
];
constraint_x7_x5=[
0,0,39|
0,1,78|
0,2,74|
0,3,29|
0,4,41|
1,0,80|
1,1,28|
1,2,62|
1,3,17|
1,4,55|
2,0,67|
2,1,40|
2,2,45|
2,3,42|
2,4,35|
3,0,16|
3,1,62|
3,2,70|
3,3,94|
3,4,32|
4,0,86|
4,1,92|
4,2,32|
4,3,59|
4,4,61|
];
constraint_x7_x6=[
0,0,79|
0,1,42|
0,2,28|
0,3,4.3|
0,4,36|
1,0,85|
1,1,47|
1,2,14|
1,3,2.2|
1,4,61|
2,0,37|
2,1,40|
2,2,34|
2,3,93|
2,4,31|
3,0,30|
3,1,45|
3,2,36|
3,3,64|
3,4,25|
4,0,66|
4,1,12|
4,2,34|
4,3,74|
4,4,6.9|
];
constraint_x8_x4=[
0,0,47|
0,1,18|
0,2,16|
0,3,99|
0,4,37|
1,0,46|
1,1,80|
1,2,91|
1,3,88|
1,4,28|
2,0,86|
2,1,83|
2,2,31|
2,3,16|
2,4,4|
3,0,32|
3,1,76|
3,2,41|
3,3,90|
3,4,98|
4,0,35|
4,1,11|
4,2,96|
4,3,98|
4,4,89|
];
constraint_x8_x5=[
0,0,0.0088|
0,1,86|
0,2,84|
0,3,55|
0,4,91|
1,0,71|
1,1,44|
1,2,23|
1,3,37|
1,4,50|
2,0,34|
2,1,21|
2,2,57|
2,3,42|
2,4,18|
3,0,47|
3,1,5.3|
3,2,60|
3,3,75|
3,4,80|
4,0,55|
4,1,19|
4,2,53|
4,3,30|
4,4,45|
];
constraint_x8_x6=[
0,0,30|
0,1,64|
0,2,26|
0,3,25|
0,4,20|
1,0,19|
1,1,41|
1,2,75|
1,3,60|
1,4,15|
2,0,95|
2,1,87|
2,2,14|
2,3,58|
2,4,66|
3,0,3.5|
3,1,37|
3,2,36|
3,3,88|
3,4,82|
4,0,92|
4,1,62|
4,2,78|
4,3,31|
4,4,86|
];
constraint_x8_x7=[
0,0,99|
0,1,32|
0,2,27|
0,3,13|
0,4,22|
1,0,88|
1,1,97|
1,2,22|
1,3,3.9|
1,4,13|
2,0,26|
2,1,2.2|
2,2,2.4|
2,3,15|
2,4,32|
3,0,84|
3,1,84|
3,2,26|
3,3,57|
3,4,57|
4,0,45|
4,1,9.1|
4,2,26|
4,3,43|
4,4,95|
];
constraint_x9_x4=[
0,0,16|
0,1,24|
0,2,36|
0,3,92|
0,4,42|
1,0,18|
1,1,46|
1,2,1.2|
1,3,62|
1,4,38|
2,0,53|
2,1,18|
2,2,1.1|
2,3,84|
2,4,88|
3,0,97|
3,1,85|
3,2,44|
3,3,47|
3,4,99|
4,0,97|
4,1,46|
4,2,12|
4,3,32|
4,4,28|
];
constraint_x9_x6=[
0,0,25|
0,1,58|
0,2,70|
0,3,71|
0,4,36|
1,0,33|
1,1,9.1|
1,2,48|
1,3,91|
1,4,52|
2,0,2.4|
2,1,72|
2,2,6.8|
2,3,48|
2,4,27|
3,0,30|
3,1,70|
3,2,46|
3,3,93|
3,4,92|
4,0,17|
4,1,66|
4,2,17|
4,3,12|
4,4,67|
];
constraint_x10_x1=[
0,0,4.5|
0,1,31|
0,2,31|
0,3,87|
0,4,57|
1,0,3.2|
1,1,56|
1,2,47|
1,3,72|
1,4,33|
2,0,52|
2,1,99|
2,2,69|
2,3,60|
2,4,31|
3,0,49|
3,1,62|
3,2,33|
3,3,78|
3,4,56|
4,0,78|
4,1,58|
4,2,0.89|
4,3,6.1|
4,4,74|
];
constraint_x10_x2=[
0,0,1e+02|
0,1,6.2|
0,2,74|
0,3,95|
0,4,4.1|
1,0,13|
1,1,12|
1,2,74|
1,3,26|
1,4,89|
2,0,23|
2,1,10|
2,2,29|
2,3,20|
2,4,83|
3,0,1.2|
3,1,83|
3,2,32|
3,3,11|
3,4,36|
4,0,1.2|
4,1,83|
4,2,0.034|
4,3,95|
4,4,39|
];
constraint_x10_x3=[
0,0,31|
0,1,26|
0,2,3.6|
0,3,5.4|
0,4,45|
1,0,71|
1,1,7.3|
1,2,87|
1,3,62|
1,4,45|
2,0,25|
2,1,82|
2,2,93|
2,3,5.3|
2,4,92|
3,0,62|
3,1,74|
3,2,80|
3,3,90|
3,4,48|
4,0,83|
4,1,6.4|
4,2,96|
4,3,22|
4,4,26|
];
constraint_x10_x4=[
0,0,51|
0,1,77|
0,2,11|
0,3,88|
0,4,31|
1,0,54|
1,1,28|
1,2,12|
1,3,44|
1,4,42|
2,0,46|
2,1,4.2|
2,2,93|
2,3,52|
2,4,28|
3,0,93|
3,1,67|
3,2,97|
3,3,16|
3,4,81|
4,0,38|
4,1,26|
4,2,59|
4,3,49|
4,4,24|
];
constraint_x10_x5=[
0,0,1e+02|
0,1,88|
0,2,87|
0,3,55|
0,4,50|
1,0,70|
1,1,88|
1,2,46|
1,3,7.2|
1,4,67|
2,0,99|
2,1,79|
2,2,73|
2,3,37|
2,4,26|
3,0,87|
3,1,87|
3,2,45|
3,3,57|
3,4,19|
4,0,2.4|
4,1,63|
4,2,95|
4,3,30|
4,4,0.1|
];
constraint_x10_x6=[
0,0,61|
0,1,77|
0,2,70|
0,3,33|
0,4,64|
1,0,52|
1,1,82|
1,2,13|
1,3,63|
1,4,36|
2,0,15|
2,1,44|
2,2,24|
2,3,95|
2,4,83|
3,0,8.2|
3,1,25|
3,2,18|
3,3,27|
3,4,26|
4,0,90|
4,1,53|
4,2,0.37|
4,3,17|
4,4,49|
];
constraint_x10_x7=[
0,0,42|
0,1,8.9|
0,2,12|
0,3,77|
0,4,91|
1,0,86|
1,1,65|
1,2,17|
1,3,42|
1,4,91|
2,0,48|
2,1,1e+02|
2,2,39|
2,3,8.3|
2,4,79|
3,0,11|
3,1,47|
3,2,79|
3,3,39|
3,4,89|
4,0,43|
4,1,59|
4,2,61|
4,3,83|
4,4,99|
];
constraint_x10_x9=[
0,0,13|
0,1,91|
0,2,12|
0,3,45|
0,4,77|
1,0,40|
1,1,20|
1,2,34|
1,3,48|
1,4,38|
2,0,85|
2,1,65|
2,2,44|
2,3,4.1|
2,4,5.7|
3,0,79|
3,1,25|
3,2,66|
3,3,73|
3,4,76|
4,0,19|
4,1,49|
4,2,52|
4,3,25|
4,4,93|
];
constraint_x1_y1=[
0,0,6.6|
0,1,34|
0,2,16|
0,3,52|
0,4,38|
1,0,47|
1,1,29|
1,2,69|
1,3,45|
1,4,37|
2,0,23|
2,1,76|
2,2,61|
2,3,45|
2,4,31|
3,0,79|
3,1,11|
3,2,26|
3,3,36|
3,4,43|
4,0,36|
4,1,58|
4,2,4|
4,3,22|
4,4,18|
];
constraint_x2_y2=[
0,0,63|
0,1,79|
0,2,25|
0,3,54|
0,4,96|
1,0,95|
1,1,32|
1,2,69|
1,3,32|
1,4,32|
2,0,76|
2,1,46|
2,2,74|
2,3,28|
2,4,9.2|
3,0,66|
3,1,75|
3,2,98|
3,3,64|
3,4,77|
4,0,77|
4,1,95|
4,2,42|
4,3,85|
4,4,59|
];
constraint_x3_y3=[
0,0,39|
0,1,3.7|
0,2,36|
0,3,37|
0,4,92|
1,0,7.8|
1,1,33|
1,2,25|
1,3,78|
1,4,38|
2,0,46|
2,1,13|
2,2,57|
2,3,66|
2,4,24|
3,0,10|
3,1,95|
3,2,66|
3,3,49|
3,4,30|
4,0,5.7|
4,1,23|
4,2,83|
4,3,28|
4,4,27|
];
constraint_x4_y4=[
0,0,46|
0,1,68|
0,2,13|
0,3,1.5|
0,4,73|
1,0,17|
1,1,12|
1,2,90|
1,3,18|
1,4,46|
2,0,1e+02|
2,1,23|
2,2,56|
2,3,97|
2,4,76|
3,0,20|
3,1,4.2|
3,2,92|
3,3,97|
3,4,64|
4,0,85|
4,1,27|
4,2,35|
4,3,13|
4,4,79|
];
constraint_x5_y5=[
0,0,91|
0,1,90|
0,2,63|
0,3,7.3|
0,4,27|
1,0,21|
1,1,2.5|
1,2,2.4|
1,3,95|
1,4,65|
2,0,54|
2,1,35|
2,2,58|
2,3,14|
2,4,62|
3,0,5.2|
3,1,71|
3,2,46|
3,3,47|
3,4,98|
4,0,87|
4,1,88|
4,2,36|
4,3,52|
4,4,68|
];
constraint_x6_y6=[
0,0,43|
0,1,8.6|
0,2,17|
0,3,15|
0,4,16|
1,0,3|
1,1,74|
1,2,19|
1,3,84|
1,4,42|
2,0,44|
2,1,61|
2,2,68|
2,3,18|
2,4,34|
3,0,63|
3,1,24|
3,2,16|
3,3,31|
3,4,32|
4,0,25|
4,1,13|
4,2,39|
4,3,75|
4,4,73|
];
constraint_x7_y7=[
0,0,59|
0,1,25|
0,2,84|
0,3,90|
0,4,18|
1,0,8.5|
1,1,68|
1,2,42|
1,3,8.8|
1,4,64|
2,0,27|
2,1,54|
2,2,63|
2,3,19|
2,4,44|
3,0,62|
3,1,94|
3,2,2.2|
3,3,62|
3,4,82|
4,0,84|
4,1,76|
4,2,85|
4,3,84|
4,4,24|
];
constraint_x8_y8=[
0,0,68|
0,1,0.46|
0,2,74|
0,3,65|
0,4,7.1|
1,0,41|
1,1,22|
1,2,51|
1,3,39|
1,4,57|
2,0,31|
2,1,40|
2,2,70|
2,3,15|
2,4,43|
3,0,46|
3,1,3.6|
3,2,73|
3,3,31|
3,4,73|
4,0,55|
4,1,45|
4,2,83|
4,3,11|
4,4,82|
];
constraint_x9_y9=[
0,0,61|
0,1,95|
0,2,21|
0,3,6.5|
0,4,47|
1,0,87|
1,1,56|
1,2,10|
1,3,74|
1,4,47|
2,0,3.3|
2,1,86|
2,2,99|
2,3,61|
2,4,66|
3,0,8.1|
3,1,59|
3,2,44|
3,3,78|
3,4,22|
4,0,97|
4,1,47|
4,2,35|
4,3,76|
4,4,31|
];
constraint_x10_y10=[
0,0,65|
0,1,54|
0,2,90|
0,3,72|
0,4,39|
1,0,19|
1,1,77|
1,2,55|
1,3,65|
1,4,81|
2,0,76|
2,1,24|
2,2,19|
2,3,25|
2,4,51|
3,0,42|
3,1,57|
3,2,55|
3,3,37|
3,4,11|
4,0,98|
4,1,24|
4,2,1e+02|
4,3,65|
4,4,99|
];
initial_distribution_y1=[0.51,0.079,0.18,0.075,0.16];
initial_distribution_y2=[0.038,0.4,0.021,0.32,0.23];
initial_distribution_y3=[0.18,0.049,0.34,0.17,0.26];
initial_distribution_y4=[0.24,0.017,0.093,0.37,0.28];
initial_distribution_y5=[0.25,0.26,0.15,0.3,0.038];
initial_distribution_y6=[0.084,0.21,0.12,0.39,0.19];
initial_distribution_y7=[0.085,0.5,0.12,0.06,0.23];
initial_distribution_y8=[0.13,0.28,0.18,0.19,0.21];
initial_distribution_y9=[0.086,0.2,0.28,0.24,0.19];
initial_distribution_y10=[0.13,0.12,0.045,0.34,0.36];
transition_y1=[
0.13,0.37,0.12,0.13,0.25|
0.11,0.083,0.089,0.5,0.22|
0.2,0.29,0.29,0.14,0.083|
0.21,0.27,0.31,0.13,0.085|
0.33,0.24,0.093,0.3,0.041|
];
transition_y2=[
0.3,0.052,0.0076,0.18,0.47|
0.21,0.1,0.012,0.29,0.39|
0.19,0.25,0.28,0.086,0.19|
0.37,0.2,0.062,0.31,0.057|
0.18,0.33,0.25,0.18,0.057|
];
transition_y3=[
0.13,0.19,0.24,0.34,0.1|
0.15,0.27,0.18,0.28,0.12|
0.06,0.25,0.23,0.27,0.19|
0.28,0.25,0.12,0.1,0.25|
0.19,0.25,0.2,0.15,0.21|
];
transition_y4=[
0.069,0.12,0.19,0.16,0.46|
0.26,0.25,0.075,0.21,0.21|
0.074,0.051,0.37,0.4,0.1|
0.18,0.007,0.31,0.43,0.07|
0.16,0.017,0.29,0.24,0.3|
];
transition_y5=[
0.5,0.35,0.02,0.087,0.044|
0.23,0.2,0.17,0.22,0.18|
0.12,0.032,0.29,0.37,0.18|
0.24,0.2,0.13,0.29,0.14|
0.047,0.2,0.3,0.11,0.34|
];
transition_y6=[
0.097,0.27,0.15,0.18,0.3|
0.2,0.16,0.23,0.31,0.1|
0.48,0.11,0.21,0.024,0.18|
0.15,0.1,0.47,0.093,0.18|
0.23,0.41,0.1,0.033,0.22|
];
transition_y7=[
0.098,0.19,0.27,0.19,0.25|
0.26,0.053,0.2,0.35,0.14|
0.26,0.22,0.17,0.23,0.12|
0.31,0.078,0.045,0.25,0.31|
0.48,0.048,0.077,0.094,0.3|
];
transition_y8=[
0.33,0.1,0.16,0.097,0.3|
0.034,0.21,0.47,0.21,0.079|
0.21,0.26,0.18,0.22,0.14|
0.37,0.074,0.26,0.027,0.27|
0.34,0.19,0.16,0.1,0.2|
];
transition_y9=[
0.18,0.03,0.09,0.61,0.092|
0.26,0.25,0.17,0.043,0.27|
0.17,0.25,0.26,0.13,0.19|
0.17,0.25,0.49,0.032,0.063|
0.19,0.21,0.13,0.17,0.29|
];
transition_y10=[
0.24,0.041,0.33,0.076,0.31|
0.29,0.007,0.26,0.14,0.3|
0.34,0.12,0.14,0.13,0.26|
0.077,0.071,0.18,0.3,0.37|
0.21,0.35,0.37,0.067,0.009|
];
